minizinc/sudoku_problems2/sudoku_p87.dzn
%
% sudoku_p87.dzn
% See http://www.hakank.org/minizinc/sudoku_gcc.mzn
% 
% This problem is problem 87 from
% Gecode's sudoku.cpp
% http://www.gecode.org/gecode-doc-latest/sudoku_8cpp-source.html
% 
x = array2d(1..n, 1..n, [   
% http://janko.at/Raetsel/Sudoku/599.a.htm
% 87
  _,  3,  _,  _,  6, 16, 15,  _,  _, 12,  8,  _,  _,  _,  _,  _,
 16,  _,  _,  9,  _, 11,  _,  8,  _,  _,  _,  5,  _, 10,  7,  4,
  7,  _,  _,  8,  _,  2,  _,  _, 11,  _,  _, 13,  _,  _,  _,  _,
  _, 14, 10,  _,  _,  _,  _,  _,  3,  _,  6,  _,  _,  9, 11,  _,
  _,  _, 15,  _,  2,  _,  _,  _,  _,  3, 10, 16,  _,  _,  _,  _,
 14,  7,  _,  _,  _,  _,  _,  _,  _,  _,  _,  _,  _,  3,  9, 16,
  _,  9,  _, 10,  _,  _,  3,  1, 14,  6,  _,  _, 15, 12,  _,  _,
  4,  _,  3,  _,  _, 13,  _,  9, 12,  _, 11,  _,  _,  _,  _, 14,
  6,  _,  _,  _,  _,  8,  _,  4, 10,  _,  2,  _,  _, 16,  _, 12,
  _,  _, 16,  3,  _,  _, 12, 15, 13,  9,  _,  _,  4,  _, 10,  _,
 10,  8,  5,  _,  _,  _,  _,  _,  _,  _,  _,  _,  _,  _, 15, 11,
  _,  _,  _,  _,  5, 10,  7,  _,  _,  _,  _,  6,  _,  2,  _,  _,
  _,  2,  4,  _,  _,  7,  _, 13,  _,  _,  _,  _,  _,  1,  6,  _,
  _,  _,  _,  _,  1,  _,  _,  3,  _,  _, 12,  _,  2,  _,  _,  8,
  1, 10,  7,  _, 12,  _,  _,  _,  6,  _,  3,  _, 14,  _,  _,  9,
  _,  _,  _,  _,  _,  6, 14,  _,  _,  1, 15,  2,  _,  _,  3,  _
]);

n = 16;


